experiment/data/lkh-res/Vrp-Set-A-n33/Vrp-Set-A-n33-lkh/1.lkh1.vrp
NAME : 1
COMMENT : CVRP Instance
TYPE : CVRP
DIMENSION : 33
EDGE_WEIGHT_TYPE : EUC_2D
CAPACITY : 100
NODE_COORD_SECTION
1	3400	3100
2	4500	5500
3	7000	8000
4	8100	7000
5	8500	6100
6	5900	5500
7	4500	6000
8	5000	6400
9	8000	6400
10	7500	9000
11	2500	4000
12	900	6600
13	100	4400
14	5000	5400
15	3500	4500
16	7100	8400
17	100	900
18	2500	5400
19	4500	5900
20	4500	7100
21	6600	8400
22	1100	3500
23	8100	4600
24	8500	1000
25	7500	2000
26	1500	2100
27	9000	4500
28	1500	0
29	3100	2600
30	1000	9500
31	600	600
32	5100	500
33	2600	3600
DEMAND_SECTION
1	0
2	26
3	17
4	6
5	15
6	7
7	5
8	15
9	16
10	17
11	1
12	21
13	66
14	25
15	16
16	11
17	7
18	17
19	17
20	22
21	10
22	25
23	16
24	7
25	21
26	11
27	21
28	11
29	21
30	22
31	25
32	2
33	22
DEPOT_SECTION
1
-1
EOF
