experiment/data/lkh-res/Vrp-Set-A-n33/Vrp-Set-A-n33-lkh/1.lkh1.tour
NAME : 1.74270.tour
COMMENT : Length = 74270
COMMENT : Found by LKH-3 [Keld Helsgaun] Tue Apr  9 00:40:29 2024
TYPE : TOUR
DIMENSION : 38
TOUR_SECTION
1
14
7
19
2
15
36
32
24
25
27
23
37
6
3
21
16
10
4
9
5
35
11
13
22
38
18
12
30
20
8
34
33
26
17
31
28
29
-1
EOF
